*SENSE:Minimize
NAME          MODEL
ROWS
 N  OBJ
 G  C0000000
 G  C0000001
 L  C0000002
 G  C0000003
 G  C0000004
 L  C0000005
 G  C0000006
 G  C0000007
 L  C0000008
 G  C0000009
 G  C0000010
 L  C0000011
 G  C0000012
 G  C0000013
 L  C0000014
 G  C0000015
 G  C0000016
 L  C0000017
 G  C0000018
 G  C0000019
 L  C0000020
 G  C0000021
 G  C0000022
 L  C0000023
 G  C0000024
 G  C0000025
 L  C0000026
 G  C0000027
 G  C0000028
 G  C0000029
 G  C0000030
 G  C0000031
 G  C0000032
 G  C0000033
 G  C0000034
 G  C0000035
 G  C0000036
 G  C0000037
 G  C0000038
 G  C0000039
 G  C0000040
 G  C0000041
 G  C0000042
 G  C0000043
 G  C0000044
 G  C0000045
 G  C0000046
 G  C0000047
 G  C0000048
 G  C0000049
 G  C0000050
 G  C0000051
 G  C0000052
 E  C0000053
COLUMNS
    X0000000  C0000000   1.000000000000e+00
    X0000000  C0000001  -1.000000000000e+00
    X0000000  C0000047  -1.000000000000e+00
    X0000000  C0000048   1.000000000000e+00
    X0000000  C0000053   1.000000000000e+00
    X0000001  C0000003   1.000000000000e+00
    X0000001  C0000004  -1.000000000000e+00
    X0000001  C0000031  -2.200000000000e-01
    X0000001  C0000032   2.200000000000e-01
    X0000001  C0000043  -7.800000000000e-01
    X0000001  C0000044   7.800000000000e-01
    X0000001  C0000053   1.000000000000e+00
    X0000002  C0000006   1.000000000000e+00
    X0000002  C0000007  -1.000000000000e+00
    X0000002  C0000043  -1.000000000000e+00
    X0000002  C0000044   1.000000000000e+00
    X0000002  C0000053   1.000000000000e+00
    X0000003  C0000009   1.000000000000e+00
    X0000003  C0000010  -1.000000000000e+00
    X0000003  C0000027  -2.200000000000e-01
    X0000003  C0000028   2.200000000000e-01
    X0000003  C0000029  -7.800000000000e-01
    X0000003  C0000030   7.800000000000e-01
    X0000003  C0000053   1.000000000000e+00
    X0000004  C0000012   1.000000000000e+00
    X0000004  C0000013  -1.000000000000e+00
    X0000004  C0000027  -6.400000000000e-01
    X0000004  C0000028   6.400000000000e-01
    X0000004  C0000029  -3.600000000000e-01
    X0000004  C0000030   3.600000000000e-01
    X0000004  C0000053   1.000000000000e+00
    X0000005  C0000015   1.000000000000e+00
    X0000005  C0000016  -1.000000000000e+00
    X0000005  C0000047  -1.000000000000e+00
    X0000005  C0000048   1.000000000000e+00
    X0000005  C0000053   1.000000000000e+00
    X0000006  C0000018   1.000000000000e+00
    X0000006  C0000019  -1.000000000000e+00
    X0000006  C0000039  -1.000000000000e+00
    X0000006  C0000040   1.000000000000e+00
    X0000006  C0000053   1.000000000000e+00
    X0000007  C0000021   1.000000000000e+00
    X0000007  C0000022  -1.000000000000e+00
    X0000007  C0000031  -7.600000000000e-01
    X0000007  C0000032   7.600000000000e-01
    X0000007  C0000051  -2.400000000000e-01
    X0000007  C0000052   2.400000000000e-01
    X0000007  C0000053   1.000000000000e+00
    X0000008  C0000024   1.000000000000e+00
    X0000008  C0000025  -1.000000000000e+00
    X0000008  C0000041  -1.000000000000e+00
    X0000008  C0000042   1.000000000000e+00
    X0000008  C0000053   1.000000000000e+00
    X0000009  C0000027   1.000000000000e+00
    X0000009  C0000028   1.000000000000e+00
    X0000009  OBJ        8.000000000000e-01
    X0000010  C0000029   1.000000000000e+00
    X0000010  C0000030   1.000000000000e+00
    X0000010  OBJ        8.000000000000e-01
    X0000011  C0000047   1.000000000000e+00
    X0000011  C0000048   1.000000000000e+00
    X0000011  OBJ        8.000000000000e-01
    X0000012  C0000049   1.000000000000e+00
    X0000012  C0000050   1.000000000000e+00
    X0000012  OBJ        8.000000000000e-01
    X0000013  C0000051   1.000000000000e+00
    X0000013  C0000052   1.000000000000e+00
    X0000013  OBJ        8.000000000000e-01
    X0000014  C0000031   1.000000000000e+00
    X0000014  C0000032   1.000000000000e+00
    X0000014  OBJ        8.000000000000e-01
    X0000015  C0000033   1.000000000000e+00
    X0000015  C0000034   1.000000000000e+00
    X0000015  OBJ        8.000000000000e-01
    X0000016  C0000035   1.000000000000e+00
    X0000016  C0000036   1.000000000000e+00
    X0000016  OBJ        8.000000000000e-01
    X0000017  C0000037   1.000000000000e+00
    X0000017  C0000038   1.000000000000e+00
    X0000017  OBJ        8.000000000000e-01
    X0000018  C0000039   1.000000000000e+00
    X0000018  C0000040   1.000000000000e+00
    X0000018  OBJ        8.000000000000e-01
    X0000019  C0000041   1.000000000000e+00
    X0000019  C0000042   1.000000000000e+00
    X0000019  OBJ        8.000000000000e-01
    X0000020  C0000043   1.000000000000e+00
    X0000020  C0000044   1.000000000000e+00
    X0000020  OBJ        8.000000000000e-01
    X0000021  C0000045   1.000000000000e+00
    X0000021  C0000046   1.000000000000e+00
    X0000021  OBJ        8.000000000000e-01
    X0000022  C0000000   1.000000000000e+00
    X0000022  C0000001   1.000000000000e+00
    X0000022  C0000002   1.000000000000e+00
    X0000023  C0000003   1.000000000000e+00
    X0000023  C0000004   1.000000000000e+00
    X0000023  C0000005   1.000000000000e+00
    X0000024  C0000006   1.000000000000e+00
    X0000024  C0000007   1.000000000000e+00
    X0000024  C0000008   1.000000000000e+00
    X0000025  C0000009   1.000000000000e+00
    X0000025  C0000010   1.000000000000e+00
    X0000025  C0000011   1.000000000000e+00
    X0000026  C0000012   1.000000000000e+00
    X0000026  C0000013   1.000000000000e+00
    X0000026  C0000014   1.000000000000e+00
    X0000027  C0000015   1.000000000000e+00
    X0000027  C0000016   1.000000000000e+00
    X0000027  C0000017   1.000000000000e+00
    X0000028  C0000018   1.000000000000e+00
    X0000028  C0000019   1.000000000000e+00
    X0000028  C0000020   1.000000000000e+00
    X0000029  C0000021   1.000000000000e+00
    X0000029  C0000022   1.000000000000e+00
    X0000029  C0000023   1.000000000000e+00
    X0000030  C0000024   1.000000000000e+00
    X0000030  C0000025   1.000000000000e+00
    X0000030  C0000026   1.000000000000e+00
    MARK      'MARKER'                 'INTORG'
    X0000031  C0000002  -2.000000000000e+01
    X0000031  OBJ        1.666666666667e-02
    MARK      'MARKER'                 'INTEND'
    MARK      'MARKER'                 'INTORG'
    X0000032  C0000005  -2.000000000000e+01
    X0000032  OBJ        1.666666666667e-02
    MARK      'MARKER'                 'INTEND'
    MARK      'MARKER'                 'INTORG'
    X0000033  C0000008  -2.000000000000e+01
    X0000033  OBJ        1.666666666667e-02
    MARK      'MARKER'                 'INTEND'
    MARK      'MARKER'                 'INTORG'
    X0000034  C0000011  -2.000000000000e+01
    X0000034  OBJ        1.666666666667e-02
    MARK      'MARKER'                 'INTEND'
    MARK      'MARKER'                 'INTORG'
    X0000035  C0000014  -2.000000000000e+01
    X0000035  OBJ        1.666666666667e-02
    MARK      'MARKER'                 'INTEND'
    MARK      'MARKER'                 'INTORG'
    X0000036  C0000017  -2.000000000000e+01
    X0000036  OBJ        1.666666666667e-02
    MARK      'MARKER'                 'INTEND'
    MARK      'MARKER'                 'INTORG'
    X0000037  C0000020  -2.000000000000e+01
    X0000037  OBJ        1.666666666667e-02
    MARK      'MARKER'                 'INTEND'
    MARK      'MARKER'                 'INTORG'
    X0000038  C0000023  -2.000000000000e+01
    X0000038  OBJ        1.666666666667e-02
    MARK      'MARKER'                 'INTEND'
    MARK      'MARKER'                 'INTORG'
    X0000039  C0000026  -2.000000000000e+01
    X0000039  OBJ        1.666666666667e-02
    MARK      'MARKER'                 'INTEND'
RHS
    RHS       C0000000   0.000000000000e+00
    RHS       C0000001   0.000000000000e+00
    RHS       C0000002   0.000000000000e+00
    RHS       C0000003   0.000000000000e+00
    RHS       C0000004   0.000000000000e+00
    RHS       C0000005   0.000000000000e+00
    RHS       C0000006   0.000000000000e+00
    RHS       C0000007   0.000000000000e+00
    RHS       C0000008   0.000000000000e+00
    RHS       C0000009   0.000000000000e+00
    RHS       C0000010   0.000000000000e+00
    RHS       C0000011   0.000000000000e+00
    RHS       C0000012   0.000000000000e+00
    RHS       C0000013   0.000000000000e+00
    RHS       C0000014   0.000000000000e+00
    RHS       C0000015   0.000000000000e+00
    RHS       C0000016   0.000000000000e+00
    RHS       C0000017   0.000000000000e+00
    RHS       C0000018   0.000000000000e+00
    RHS       C0000019   0.000000000000e+00
    RHS       C0000020   0.000000000000e+00
    RHS       C0000021   0.000000000000e+00
    RHS       C0000022   0.000000000000e+00
    RHS       C0000023   0.000000000000e+00
    RHS       C0000024   0.000000000000e+00
    RHS       C0000025   0.000000000000e+00
    RHS       C0000026   0.000000000000e+00
    RHS       C0000027   2.183040000000e-01
    RHS       C0000028  -2.183040000000e-01
    RHS       C0000029   1.228000000000e-01
    RHS       C0000030  -1.228000000000e-01
    RHS       C0000031  -6.220000000000e-02
    RHS       C0000032   6.220000000000e-02
    RHS       C0000033   nan
    RHS       C0000034   nan
    RHS       C0000035   nan
    RHS       C0000036   nan
    RHS       C0000037   nan
    RHS       C0000038   nan
    RHS       C0000039  -1.812000000000e-01
    RHS       C0000040   1.812000000000e-01
    RHS       C0000041  -1.659000000000e-01
    RHS       C0000042   1.659000000000e-01
    RHS       C0000043   nan
    RHS       C0000044   nan
    RHS       C0000045   nan
    RHS       C0000046   nan
    RHS       C0000047   8.790000000000e-02
    RHS       C0000048  -8.790000000000e-02
    RHS       C0000049   nan
    RHS       C0000050   nan
    RHS       C0000051  -1.970000000000e-02
    RHS       C0000052   1.970000000000e-02
    RHS       C0000053   0.000000000000e+00
BOUNDS
 UP BND       X0000000   1.000000000000e+00
 UP BND       X0000001   1.000000000000e+00
 UP BND       X0000002   1.000000000000e+00
 UP BND       X0000003   1.000000000000e+00
 LO BND       X0000004  -4.000000000000e-01
 UP BND       X0000004   6.000000000000e-01
 LO BND       X0000005  -1.900000000000e-01
 UP BND       X0000005   8.100000000000e-01
 LO BND       X0000006  -1.200000000000e-01
 UP BND       X0000006   8.800000000000e-01
 LO BND       X0000007  -1.500000000000e-01
 UP BND       X0000007   8.500000000000e-01
 LO BND       X0000008  -1.400000000000e-01
 UP BND       X0000008   8.600000000000e-01
 FR BND       X0000009
 FR BND       X0000010
 FR BND       X0000011
 FR BND       X0000012
 FR BND       X0000013
 FR BND       X0000014
 FR BND       X0000015
 FR BND       X0000016
 FR BND       X0000017
 FR BND       X0000018
 FR BND       X0000019
 FR BND       X0000020
 FR BND       X0000021
 FR BND       X0000022
 FR BND       X0000023
 FR BND       X0000024
 FR BND       X0000025
 FR BND       X0000026
 FR BND       X0000027
 FR BND       X0000028
 FR BND       X0000029
 FR BND       X0000030
 BV BND       X0000031
 BV BND       X0000032
 BV BND       X0000033
 BV BND       X0000034
 BV BND       X0000035
 BV BND       X0000036
 BV BND       X0000037
 BV BND       X0000038
 BV BND       X0000039
ENDATA
